c 109_4_checker.cnf
c
c field = 109
c formula set type = 4_checker
c
p cnf 5 62
210 
212 
214 
218 
-220 
211 
213 
215 
219 
-221 
212 
214 
218 
220 
-210 
213 
215 
219 
221 
-211 
212 
214 
218 
220 
-222 
213 
215 
219 
221 
-223 
214 
218 
220 
222 
-212 
215 
219 
221 
223 
-213 
214 
218 
220 
222 
-224 
215 
219 
221 
223 
-225 
218 
220 
222 
224 
-214 
219 
221 
223 
225 
-215 
218 
220 
222 
224 
-226 
219 
221 
223 
225 
-227 
96 
126 
156 
186 
-66 
97 
127 
157 
187 
-67 
96 
126 
156 
186 
-246 
97 
127 
157 
187 
-247 
126 
156 
186 
246 
-96 
127 
157 
187 
247 
-97 
126 
156 
186 
246 
-276 
127 
157 
187 
247 
-277 
156 
186 
246 
276 
-126 
157 
187 
247 
277 
-127 
156 
186 
246 
276 
-306 
157 
187 
247 
277 
-307 
186 
246 
276 
306 
-156 
187 
247 
277 
307 
-157 
186 
246 
276 
306 
-336 
187 
247 
277 
307 
-337 
246 
276 
306 
336 
-186 
247 
277 
307 
337 
-187 
246 
276 
306 
336 
-366 
247 
277 
307 
337 
-367 
120 
152 
184 
248 
-280 
121 
153 
185 
249 
-281 
152 
184 
248 
280 
-120 
153 
185 
249 
281 
-121 
152 
184 
248 
280 
-312 
153 
185 
249 
281 
-313 
184 
248 
280 
312 
-152 
185 
249 
281 
313 
-153 
184 
248 
280 
312 
-344 
185 
249 
281 
313 
-345 
248 
280 
312 
344 
-184 
249 
281 
313 
345 
-185 
248 
280 
312 
344 
-376 
249 
281 
313 
345 
-377 
104 
132 
160 
188 
-76 
105 
133 
161 
189 
-77 
104 
132 
160 
188 
-244 
105 
133 
161 
189 
-245 
132 
160 
188 
244 
-104 
133 
161 
189 
245 
-105 
132 
160 
188 
244 
-272 
133 
161 
189 
245 
-273 
160 
188 
244 
272 
-132 
161 
189 
245 
273 
-133 
160 
188 
244 
272 
-300 
161 
189 
245 
273 
-301 
188 
244 
272 
300 
-160 
189 
245 
273 
301 
-161 
